(set-logic QF_NRA)
(set-info :source |Benchmarks generated from hycomp (https://es-static.fbk.eu/tools/hycomp/). BMC instances of non-linear hybrid automata taken from: Alessandro Cimatti, Sergio Mover, Stefano Tonetta, A quantifier-free SMT encoding of non-linear hybrid automata, FMCAD 2012 and Alessandro Cimatti, Sergio Mover, Stefano Tonetta, Quantier-free encoding of invariants for Hybrid Systems, Formal Methods in System Design. This instance solves a BMC problem of depth 2 and uses the quantifier free encoding with equivalences encoding. Contacts: Sergio Mover (mover@fbk.eu), Stefano Tonetta (tonettas@fbk.eu), Alessandro Cimatti (cimatti@fbk.eu).|)
(set-info :smt-lib-version 2.0)
(set-info :category "industrial")
(set-info :status unsat)
;; MathSAT API call trace
;; generated on Mon Mar 19 10:47:33 2012
(declare-fun b.speed_x__AT2 () Real)
(declare-fun b.speed_y__AT2 () Real)
(declare-fun b.speed_x__AT1 () Real)
(declare-fun b.time__AT1 () Real)
(declare-fun b.x__AT1 () Real)
(declare-fun b.event_is_timed__AT1 () Bool)
(declare-fun b.counter.0__AT1 () Bool)
(declare-fun b.EVENT.1__AT0 () Bool)
(declare-fun b.speed_loss__AT0 () Real)
(declare-fun b.counter.1__AT1 () Bool)
(declare-fun b.speed_x__AT0 () Real)
(declare-fun b.counter.2__AT1 () Bool)
(declare-fun b.time__AT0 () Real)
(declare-fun b.counter.2__AT0 () Bool)
(declare-fun b.counter.3__AT1 () Bool)
(declare-fun b.bool_atom__AT1 () Bool)
(declare-fun b.x__AT0 () Real)
(declare-fun b.speed_y__AT1 () Real)
(declare-fun b.delta__AT1 () Real)
(declare-fun b.bool_atom__AT0 () Bool)
(declare-fun b.y__AT0 () Real)
(declare-fun b.EVENT.1__AT1 () Bool)
(declare-fun b.EVENT.0__AT1 () Bool)
(declare-fun b.counter.0__AT0 () Bool)
(declare-fun b.event_is_timed__AT2 () Bool)
(declare-fun b.delta__AT0 () Real)
(declare-fun b.counter.1__AT0 () Bool)
(declare-fun b.y__AT1 () Real)
(declare-fun b.EVENT.0__AT0 () Bool)
(declare-fun b.time__AT2 () Real)
(declare-fun b.y__AT2 () Real)
(declare-fun b.delta__AT2 () Real)
(declare-fun b.counter.0__AT2 () Bool)
(declare-fun b.speed_y__AT0 () Real)
(declare-fun b.x__AT2 () Real)
(declare-fun b.EVENT.0__AT2 () Bool)
(declare-fun b.counter.1__AT2 () Bool)
(declare-fun b.EVENT.1__AT2 () Bool)
(declare-fun b.counter.2__AT2 () Bool)
(declare-fun b.event_is_timed__AT0 () Bool)
(declare-fun b.counter.3__AT2 () Bool)
(declare-fun b.bool_atom__AT2 () Bool)
(declare-fun b.counter.3__AT0 () Bool)
(assert (let ((.def_602 (* (- 1.0) b.speed_x__AT2)))
(let ((.def_603 (* b.speed_x__AT2 .def_602)))
(let ((.def_604 (* (- 1.0) .def_603)))
(let ((.def_635 (* 2.0 .def_604)))
(let ((.def_636 (* b.delta__AT2 .def_635)))
(let ((.def_637 (* 5.0 .def_636)))
(let ((.def_538 (* (- 1.0) b.x__AT2)))
(let ((.def_615 (* b.speed_x__AT2 .def_538)))
(let ((.def_640 (* (- 5.0) .def_615)))
(let ((.def_646 (+ .def_640 .def_637)))
(let ((.def_610 (* b.x__AT2 .def_602)))
(let ((.def_638 (* (- 5.0) .def_610)))
(let ((.def_647 (+ .def_638 .def_646)))
(let ((.def_642 (* (- 49.0) b.delta__AT2)))
(let ((.def_648 (+ .def_642 .def_647)))
(let ((.def_644 (* 5.0 b.speed_y__AT2)))
(let ((.def_649 (+ .def_644 .def_648)))
(let ((.def_653 (<= .def_649 0.0 )))
(let ((.def_616 (* (- 1.0) .def_615)))
(let ((.def_611 (* (- 1.0) .def_610)))
(let ((.def_632 (+ .def_611 .def_616)))
(let ((.def_633 (+ b.speed_y__AT2 .def_632)))
(let ((.def_652 (<= .def_633 0.0 )))
(let ((.def_654 (and .def_652 .def_653)))
(let ((.def_650 (<= 0.0 .def_649)))
(let ((.def_634 (<= 0.0 .def_633)))
(let ((.def_651 (and .def_634 .def_650)))
(let ((.def_655 (or .def_651 .def_654)))
(let ((.def_617 (* b.delta__AT2 .def_616)))
(let ((.def_618 (* 10.0 .def_617)))
(let ((.def_612 (* b.delta__AT2 .def_611)))
(let ((.def_613 (* 10.0 .def_612)))
(let ((.def_624 (+ .def_613 .def_618)))
(let ((.def_601 (* b.delta__AT2 b.delta__AT2)))
(let ((.def_605 (* .def_601 .def_604)))
(let ((.def_606 (* 10.0 .def_605)))
(let ((.def_625 (+ .def_606 .def_624)))
(let ((.def_608 (* (- 49.0) .def_601)))
(let ((.def_626 (+ .def_608 .def_625)))
(let ((.def_599 (* b.speed_y__AT2 b.delta__AT2)))
(let ((.def_600 (* 10.0 .def_599)))
(let ((.def_627 (+ .def_600 .def_626)))
(let ((.def_584 (* b.x__AT2 .def_538)))
(let ((.def_620 (* (- 10.0) .def_584)))
(let ((.def_628 (+ .def_620 .def_627)))
(let ((.def_622 (* 10.0 b.y__AT2)))
(let ((.def_629 (+ .def_622 .def_628)))
(let ((.def_630 (<= 0.0 .def_629)))
(let ((.def_585 (<= .def_584 b.y__AT2)))
(let ((.def_631 (and .def_585 .def_630)))
(let ((.def_656 (and .def_631 .def_655)))
(let ((.def_72 (<= b.speed_loss__AT0 (/ 1 2))))
(let ((.def_69 (<= (/ 1 10) b.speed_loss__AT0)))
(let ((.def_73 (and .def_69 .def_72)))
(let ((.def_657 (and .def_73 .def_656)))
(let ((.def_246 (not b.counter.0__AT1)))
(let ((.def_236 (not b.counter.1__AT1)))
(let ((.def_590 (and .def_236 .def_246)))
(let ((.def_594 (or b.counter.3__AT1 .def_590)))
(let ((.def_591 (or b.counter.2__AT1 .def_590)))
(let ((.def_241 (not b.counter.2__AT1)))
(let ((.def_589 (or .def_236 .def_241)))
(let ((.def_592 (and .def_589 .def_591)))
(let ((.def_255 (not b.counter.3__AT1)))
(let ((.def_593 (or .def_255 .def_592)))
(let ((.def_595 (and .def_593 .def_594)))
(let ((.def_586 (and .def_73 .def_585)))
(let ((.def_581 (not b.EVENT.0__AT2)))
(let ((.def_579 (not b.EVENT.1__AT2)))
(let ((.def_582 (or .def_579 .def_581)))
(let ((.def_9 (not b.counter.0__AT2)))
(let ((.def_6 (not b.counter.1__AT2)))
(let ((.def_572 (or .def_6 .def_9)))
(let ((.def_576 (or b.counter.3__AT2 .def_572)))
(let ((.def_573 (or b.counter.2__AT2 .def_572)))
(let ((.def_4 (not b.counter.2__AT2)))
(let ((.def_571 (or .def_4 .def_9)))
(let ((.def_574 (and .def_571 .def_573)))
(let ((.def_14 (not b.counter.3__AT2)))
(let ((.def_575 (or .def_14 .def_574)))
(let ((.def_577 (and .def_575 .def_576)))
(let ((.def_583 (and .def_577 .def_582)))
(let ((.def_587 (and .def_583 .def_586)))
(let ((.def_566 (<= 0.0 b.delta__AT1)))
(let ((.def_333 (not b.EVENT.0__AT1)))
(let ((.def_331 (not b.EVENT.1__AT1)))
(let ((.def_410 (and .def_331 .def_333)))
(let ((.def_412 (not .def_410)))
(let ((.def_567 (or .def_412 .def_566)))
(let ((.def_568 (or b.EVENT.1__AT1 .def_567)))
(let ((.def_450 (= b.bool_atom__AT1 b.bool_atom__AT2)))
(let ((.def_446 (= b.counter.0__AT2 b.counter.0__AT1)))
(let ((.def_444 (= b.counter.1__AT2 b.counter.1__AT1)))
(let ((.def_442 (= b.counter.2__AT2 b.counter.2__AT1)))
(let ((.def_441 (= b.counter.3__AT2 b.counter.3__AT1)))
(let ((.def_443 (and .def_441 .def_442)))
(let ((.def_445 (and .def_443 .def_444)))
(let ((.def_447 (and .def_445 .def_446)))
(let ((.def_562 (and .def_447 .def_450)))
(let ((.def_563 (or .def_412 .def_562)))
(let ((.def_564 (or b.EVENT.1__AT1 .def_563)))
(let ((.def_550 (* (- 10.0) b.y__AT2)))
(let ((.def_352 (* b.delta__AT1 b.delta__AT1)))
(let ((.def_359 (* (- 49.0) .def_352)))
(let ((.def_554 (+ .def_359 .def_550)))
(let ((.def_350 (* b.speed_y__AT1 b.delta__AT1)))
(let ((.def_351 (* 10.0 .def_350)))
(let ((.def_555 (+ .def_351 .def_554)))
(let ((.def_373 (* 10.0 b.y__AT1)))
(let ((.def_556 (+ .def_373 .def_555)))
(let ((.def_557 (= .def_556 0.0 )))
(let ((.def_545 (* (- 5.0) b.speed_y__AT2)))
(let ((.def_393 (* (- 49.0) b.delta__AT1)))
(let ((.def_546 (+ .def_393 .def_545)))
(let ((.def_395 (* 5.0 b.speed_y__AT1)))
(let ((.def_547 (+ .def_395 .def_546)))
(let ((.def_548 (= .def_547 0.0 )))
(let ((.def_537 (* b.speed_x__AT1 b.delta__AT1)))
(let ((.def_541 (+ .def_538 .def_537)))
(let ((.def_542 (+ b.x__AT1 .def_541)))
(let ((.def_543 (= .def_542 0.0 )))
(let ((.def_436 (= b.speed_x__AT1 b.speed_x__AT2)))
(let ((.def_544 (and .def_436 .def_543)))
(let ((.def_549 (and .def_544 .def_548)))
(let ((.def_558 (and .def_549 .def_557)))
(let ((.def_559 (or .def_412 .def_558)))
(let ((.def_433 (= b.y__AT1 b.y__AT2)))
(let ((.def_430 (= b.x__AT1 b.x__AT2)))
(let ((.def_531 (and .def_430 .def_433)))
(let ((.def_532 (and .def_436 .def_531)))
(let ((.def_439 (= b.speed_y__AT1 b.speed_y__AT2)))
(let ((.def_533 (and .def_439 .def_532)))
(let ((.def_528 (= b.delta__AT1 0.0 )))
(let ((.def_529 (and .def_410 .def_528)))
(let ((.def_530 (not .def_529)))
(let ((.def_534 (or .def_530 .def_533)))
(let ((.def_535 (or b.EVENT.1__AT1 .def_534)))
(let ((.def_520 (and .def_436 .def_439)))
(let ((.def_521 (and .def_447 .def_520)))
(let ((.def_522 (or b.bool_atom__AT1 .def_521)))
(let ((.def_496 (or .def_9 b.counter.0__AT1)))
(let ((.def_495 (or b.counter.0__AT2 .def_246)))
(let ((.def_497 (and .def_495 .def_496)))
(let ((.def_498 (and .def_6 .def_497)))
(let ((.def_499 (or b.counter.1__AT1 .def_498)))
(let ((.def_494 (or b.counter.1__AT2 .def_236)))
(let ((.def_500 (and .def_494 .def_499)))
(let ((.def_511 (and .def_4 .def_500)))
(let ((.def_512 (or b.counter.2__AT1 .def_511)))
(let ((.def_506 (and .def_6 .def_246)))
(let ((.def_507 (or b.counter.1__AT1 .def_506)))
(let ((.def_508 (and .def_494 .def_507)))
(let ((.def_509 (and b.counter.2__AT2 .def_508)))
(let ((.def_510 (or .def_241 .def_509)))
(let ((.def_513 (and .def_510 .def_512)))
(let ((.def_514 (and b.counter.3__AT2 .def_513)))
(let ((.def_515 (or b.counter.3__AT1 .def_514)))
(let ((.def_501 (and b.counter.2__AT2 .def_500)))
(let ((.def_502 (or b.counter.2__AT1 .def_501)))
(let ((.def_490 (or b.counter.1__AT2 b.counter.1__AT1)))
(let ((.def_488 (and .def_6 b.counter.0__AT2)))
(let ((.def_489 (or .def_236 .def_488)))
(let ((.def_491 (and .def_489 .def_490)))
(let ((.def_492 (and .def_4 .def_491)))
(let ((.def_493 (or .def_241 .def_492)))
(let ((.def_503 (and .def_493 .def_502)))
(let ((.def_504 (and .def_14 .def_503)))
(let ((.def_505 (or .def_255 .def_504)))
(let ((.def_516 (and .def_505 .def_515)))
(let ((.def_222 (* b.speed_y__AT1 b.speed_y__AT1)))
(let ((.def_220 (* b.speed_x__AT1 b.speed_x__AT1)))
(let ((.def_480 (+ .def_220 .def_222)))
(let ((.def_208 (* (- 1.0) b.speed_loss__AT0)))
(let ((.def_209 (+ 1.0 .def_208)))
(let ((.def_225 (* .def_209 .def_209)))
(let ((.def_481 (* .def_225 .def_480)))
(let ((.def_483 (* (- 1.0) .def_481)))
(let ((.def_477 (* b.speed_y__AT2 b.speed_y__AT2)))
(let ((.def_484 (+ .def_477 .def_483)))
(let ((.def_475 (* b.speed_x__AT2 b.speed_x__AT2)))
(let ((.def_485 (+ .def_475 .def_484)))
(let ((.def_486 (= .def_485 0.0 )))
(let ((.def_468 (* b.speed_y__AT1 .def_209)))
(let ((.def_205 (* (- 2.0) b.x__AT1)))
(let ((.def_206 (* (- 1.0) .def_205)))
(let ((.def_465 (* .def_206 .def_209)))
(let ((.def_466 (* b.speed_x__AT1 .def_465)))
(let ((.def_471 (+ .def_466 .def_468)))
(let ((.def_462 (* (- 2.0) b.x__AT2)))
(let ((.def_463 (* (- 1.0) .def_462)))
(let ((.def_464 (* b.speed_x__AT2 .def_463)))
(let ((.def_472 (+ .def_464 .def_471)))
(let ((.def_473 (+ b.speed_y__AT2 .def_472)))
(let ((.def_474 (= .def_473 0.0 )))
(let ((.def_487 (and .def_474 .def_486)))
(let ((.def_517 (and .def_487 .def_516)))
(let ((.def_461 (not b.bool_atom__AT1)))
(let ((.def_518 (or .def_461 .def_517)))
(let ((.def_207 (* b.speed_x__AT1 .def_206)))
(let ((.def_456 (+ b.speed_y__AT1 .def_207)))
(let ((.def_457 (<= 0.0 .def_456)))
(let ((.def_458 (not .def_457)))
(let ((.def_290 (* (- 1.0) b.x__AT1)))
(let ((.def_336 (* b.x__AT1 .def_290)))
(let ((.def_455 (= b.y__AT1 .def_336)))
(let ((.def_459 (and .def_455 .def_458)))
(let ((.def_460 (= b.bool_atom__AT1 .def_459)))
(let ((.def_519 (and .def_460 .def_518)))
(let ((.def_523 (and .def_519 .def_522)))
(let ((.def_524 (and .def_430 .def_523)))
(let ((.def_525 (and .def_433 .def_524)))
(let ((.def_526 (or .def_410 .def_525)))
(let ((.def_527 (or b.EVENT.1__AT1 .def_526)))
(let ((.def_536 (and .def_527 .def_535)))
(let ((.def_560 (and .def_536 .def_559)))
(let ((.def_417 (= b.time__AT1 b.time__AT2)))
(let ((.def_431 (and .def_417 .def_430)))
(let ((.def_434 (and .def_431 .def_433)))
(let ((.def_437 (and .def_434 .def_436)))
(let ((.def_440 (and .def_437 .def_439)))
(let ((.def_448 (and .def_440 .def_447)))
(let ((.def_451 (and .def_448 .def_450)))
(let ((.def_452 (or .def_331 .def_451)))
(let ((.def_420 (* (- 1.0) b.time__AT2)))
(let ((.def_423 (+ b.delta__AT1 .def_420)))
(let ((.def_424 (+ b.time__AT1 .def_423)))
(let ((.def_425 (= .def_424 0.0 )))
(let ((.def_426 (or .def_412 .def_425)))
(let ((.def_427 (or b.EVENT.1__AT1 .def_426)))
(let ((.def_418 (or .def_410 .def_417)))
(let ((.def_419 (or b.EVENT.1__AT1 .def_418)))
(let ((.def_428 (and .def_419 .def_427)))
(let ((.def_453 (and .def_428 .def_452)))
(let ((.def_414 (= .def_412 b.event_is_timed__AT2)))
(let ((.def_411 (= b.event_is_timed__AT1 .def_410)))
(let ((.def_415 (and .def_411 .def_414)))
(let ((.def_454 (and .def_415 .def_453)))
(let ((.def_561 (and .def_454 .def_560)))
(let ((.def_565 (and .def_561 .def_564)))
(let ((.def_569 (and .def_565 .def_568)))
(let ((.def_570 (and .def_331 .def_569)))
(let ((.def_588 (and .def_570 .def_587)))
(let ((.def_596 (and .def_588 .def_595)))
(let ((.def_353 (* (- 1.0) b.speed_x__AT1)))
(let ((.def_354 (* b.speed_x__AT1 .def_353)))
(let ((.def_355 (* (- 1.0) .def_354)))
(let ((.def_386 (* 2.0 .def_355)))
(let ((.def_387 (* b.delta__AT1 .def_386)))
(let ((.def_388 (* 5.0 .def_387)))
(let ((.def_366 (* b.speed_x__AT1 .def_290)))
(let ((.def_391 (* (- 5.0) .def_366)))
(let ((.def_397 (+ .def_391 .def_388)))
(let ((.def_361 (* b.x__AT1 .def_353)))
(let ((.def_389 (* (- 5.0) .def_361)))
(let ((.def_398 (+ .def_389 .def_397)))
(let ((.def_399 (+ .def_393 .def_398)))
(let ((.def_400 (+ .def_395 .def_399)))
(let ((.def_404 (<= .def_400 0.0 )))
(let ((.def_367 (* (- 1.0) .def_366)))
(let ((.def_362 (* (- 1.0) .def_361)))
(let ((.def_383 (+ .def_362 .def_367)))
(let ((.def_384 (+ b.speed_y__AT1 .def_383)))
(let ((.def_403 (<= .def_384 0.0 )))
(let ((.def_405 (and .def_403 .def_404)))
(let ((.def_401 (<= 0.0 .def_400)))
(let ((.def_385 (<= 0.0 .def_384)))
(let ((.def_402 (and .def_385 .def_401)))
(let ((.def_406 (or .def_402 .def_405)))
(let ((.def_368 (* b.delta__AT1 .def_367)))
(let ((.def_369 (* 10.0 .def_368)))
(let ((.def_363 (* b.delta__AT1 .def_362)))
(let ((.def_364 (* 10.0 .def_363)))
(let ((.def_375 (+ .def_364 .def_369)))
(let ((.def_356 (* .def_352 .def_355)))
(let ((.def_357 (* 10.0 .def_356)))
(let ((.def_376 (+ .def_357 .def_375)))
(let ((.def_377 (+ .def_359 .def_376)))
(let ((.def_378 (+ .def_351 .def_377)))
(let ((.def_371 (* (- 10.0) .def_336)))
(let ((.def_379 (+ .def_371 .def_378)))
(let ((.def_380 (+ .def_373 .def_379)))
(let ((.def_381 (<= 0.0 .def_380)))
(let ((.def_337 (<= .def_336 b.y__AT1)))
(let ((.def_382 (and .def_337 .def_381)))
(let ((.def_407 (and .def_382 .def_406)))
(let ((.def_408 (and .def_73 .def_407)))
(let ((.def_41 (not b.counter.0__AT0)))
(let ((.def_39 (not b.counter.1__AT0)))
(let ((.def_42 (and .def_39 .def_41)))
(let ((.def_345 (or .def_42 b.counter.3__AT0)))
(let ((.def_342 (or .def_42 b.counter.2__AT0)))
(let ((.def_44 (not b.counter.2__AT0)))
(let ((.def_341 (or .def_39 .def_44)))
(let ((.def_343 (and .def_341 .def_342)))
(let ((.def_47 (not b.counter.3__AT0)))
(let ((.def_344 (or .def_47 .def_343)))
(let ((.def_346 (and .def_344 .def_345)))
(let ((.def_338 (and .def_73 .def_337)))
(let ((.def_334 (or .def_331 .def_333)))
(let ((.def_324 (or .def_236 .def_246)))
(let ((.def_328 (or b.counter.3__AT1 .def_324)))
(let ((.def_325 (or b.counter.2__AT1 .def_324)))
(let ((.def_323 (or .def_241 .def_246)))
(let ((.def_326 (and .def_323 .def_325)))
(let ((.def_327 (or .def_255 .def_326)))
(let ((.def_329 (and .def_327 .def_328)))
(let ((.def_335 (and .def_329 .def_334)))
(let ((.def_339 (and .def_335 .def_338)))
(let ((.def_318 (<= 0.0 b.delta__AT0)))
(let ((.def_60 (not b.EVENT.0__AT0)))
(let ((.def_58 (not b.EVENT.1__AT0)))
(let ((.def_144 (and .def_58 .def_60)))
(let ((.def_146 (not .def_144)))
(let ((.def_319 (or .def_146 .def_318)))
(let ((.def_320 (or b.EVENT.1__AT0 .def_319)))
(let ((.def_189 (= b.bool_atom__AT0 b.bool_atom__AT1)))
(let ((.def_184 (= b.counter.0__AT0 b.counter.0__AT1)))
(let ((.def_181 (= b.counter.1__AT0 b.counter.1__AT1)))
(let ((.def_178 (= b.counter.2__AT0 b.counter.2__AT1)))
(let ((.def_176 (= b.counter.3__AT0 b.counter.3__AT1)))
(let ((.def_179 (and .def_176 .def_178)))
(let ((.def_182 (and .def_179 .def_181)))
(let ((.def_185 (and .def_182 .def_184)))
(let ((.def_314 (and .def_185 .def_189)))
(let ((.def_315 (or .def_146 .def_314)))
(let ((.def_316 (or b.EVENT.1__AT0 .def_315)))
(let ((.def_303 (* (- 10.0) b.y__AT1)))
(let ((.def_81 (* b.delta__AT0 b.delta__AT0)))
(let ((.def_90 (* (- 49.0) .def_81)))
(let ((.def_306 (+ .def_90 .def_303)))
(let ((.def_79 (* b.speed_y__AT0 b.delta__AT0)))
(let ((.def_80 (* 10.0 .def_79)))
(let ((.def_307 (+ .def_80 .def_306)))
(let ((.def_105 (* 10.0 b.y__AT0)))
(let ((.def_308 (+ .def_105 .def_307)))
(let ((.def_309 (= .def_308 0.0 )))
(let ((.def_297 (* (- 5.0) b.speed_y__AT1)))
(let ((.def_127 (* (- 49.0) b.delta__AT0)))
(let ((.def_298 (+ .def_127 .def_297)))
(let ((.def_129 (* 5.0 b.speed_y__AT0)))
(let ((.def_299 (+ .def_129 .def_298)))
(let ((.def_300 (= .def_299 0.0 )))
(let ((.def_289 (* b.speed_x__AT0 b.delta__AT0)))
(let ((.def_293 (+ .def_290 .def_289)))
(let ((.def_294 (+ b.x__AT0 .def_293)))
(let ((.def_295 (= .def_294 0.0 )))
(let ((.def_170 (= b.speed_x__AT0 b.speed_x__AT1)))
(let ((.def_296 (and .def_170 .def_295)))
(let ((.def_301 (and .def_296 .def_300)))
(let ((.def_310 (and .def_301 .def_309)))
(let ((.def_311 (or .def_146 .def_310)))
(let ((.def_167 (= b.y__AT0 b.y__AT1)))
(let ((.def_164 (= b.x__AT0 b.x__AT1)))
(let ((.def_283 (and .def_164 .def_167)))
(let ((.def_284 (and .def_170 .def_283)))
(let ((.def_173 (= b.speed_y__AT0 b.speed_y__AT1)))
(let ((.def_285 (and .def_173 .def_284)))
(let ((.def_280 (= b.delta__AT0 0.0 )))
(let ((.def_281 (and .def_144 .def_280)))
(let ((.def_282 (not .def_281)))
(let ((.def_286 (or .def_282 .def_285)))
(let ((.def_287 (or b.EVENT.1__AT0 .def_286)))
(let ((.def_272 (and .def_170 .def_173)))
(let ((.def_273 (and .def_185 .def_272)))
(let ((.def_274 (or b.bool_atom__AT0 .def_273)))
(let ((.def_247 (or b.counter.0__AT0 .def_246)))
(let ((.def_245 (or .def_41 b.counter.0__AT1)))
(let ((.def_248 (and .def_245 .def_247)))
(let ((.def_249 (and .def_236 .def_248)))
(let ((.def_250 (or b.counter.1__AT0 .def_249)))
(let ((.def_244 (or .def_39 b.counter.1__AT1)))
(let ((.def_251 (and .def_244 .def_250)))
(let ((.def_263 (and .def_241 .def_251)))
(let ((.def_264 (or b.counter.2__AT0 .def_263)))
(let ((.def_258 (and .def_41 .def_236)))
(let ((.def_259 (or b.counter.1__AT0 .def_258)))
(let ((.def_260 (and .def_244 .def_259)))
(let ((.def_261 (and b.counter.2__AT1 .def_260)))
(let ((.def_262 (or .def_44 .def_261)))
(let ((.def_265 (and .def_262 .def_264)))
(let ((.def_266 (and b.counter.3__AT1 .def_265)))
(let ((.def_267 (or b.counter.3__AT0 .def_266)))
(let ((.def_252 (and b.counter.2__AT1 .def_251)))
(let ((.def_253 (or b.counter.2__AT0 .def_252)))
(let ((.def_239 (or b.counter.1__AT0 b.counter.1__AT1)))
(let ((.def_237 (and b.counter.0__AT1 .def_236)))
(let ((.def_238 (or .def_39 .def_237)))
(let ((.def_240 (and .def_238 .def_239)))
(let ((.def_242 (and .def_240 .def_241)))
(let ((.def_243 (or .def_44 .def_242)))
(let ((.def_254 (and .def_243 .def_253)))
(let ((.def_256 (and .def_254 .def_255)))
(let ((.def_257 (or .def_47 .def_256)))
(let ((.def_268 (and .def_257 .def_267)))
(let ((.def_227 (* b.speed_y__AT0 b.speed_y__AT0)))
(let ((.def_226 (* b.speed_x__AT0 b.speed_x__AT0)))
(let ((.def_228 (+ .def_226 .def_227)))
(let ((.def_229 (* .def_225 .def_228)))
(let ((.def_231 (* (- 1.0) .def_229)))
(let ((.def_232 (+ .def_222 .def_231)))
(let ((.def_233 (+ .def_220 .def_232)))
(let ((.def_234 (= .def_233 0.0 )))
(let ((.def_213 (* b.speed_y__AT0 .def_209)))
(let ((.def_196 (* (- 2.0) b.x__AT0)))
(let ((.def_197 (* (- 1.0) .def_196)))
(let ((.def_210 (* .def_197 .def_209)))
(let ((.def_211 (* b.speed_x__AT0 .def_210)))
(let ((.def_216 (+ .def_211 .def_213)))
(let ((.def_217 (+ .def_207 .def_216)))
(let ((.def_218 (+ b.speed_y__AT1 .def_217)))
(let ((.def_219 (= .def_218 0.0 )))
(let ((.def_235 (and .def_219 .def_234)))
(let ((.def_269 (and .def_235 .def_268)))
(let ((.def_204 (not b.bool_atom__AT0)))
(let ((.def_270 (or .def_204 .def_269)))
(let ((.def_198 (* b.speed_x__AT0 .def_197)))
(let ((.def_199 (+ b.speed_y__AT0 .def_198)))
(let ((.def_200 (<= 0.0 .def_199)))
(let ((.def_201 (not .def_200)))
(let ((.def_64 (* (- 1.0) b.x__AT0)))
(let ((.def_65 (* b.x__AT0 .def_64)))
(let ((.def_194 (= b.y__AT0 .def_65)))
(let ((.def_202 (and .def_194 .def_201)))
(let ((.def_203 (= b.bool_atom__AT0 .def_202)))
(let ((.def_271 (and .def_203 .def_270)))
(let ((.def_275 (and .def_271 .def_274)))
(let ((.def_276 (and .def_164 .def_275)))
(let ((.def_277 (and .def_167 .def_276)))
(let ((.def_278 (or .def_144 .def_277)))
(let ((.def_279 (or b.EVENT.1__AT0 .def_278)))
(let ((.def_288 (and .def_279 .def_287)))
(let ((.def_312 (and .def_288 .def_311)))
(let ((.def_151 (= b.time__AT0 b.time__AT1)))
(let ((.def_165 (and .def_151 .def_164)))
(let ((.def_168 (and .def_165 .def_167)))
(let ((.def_171 (and .def_168 .def_170)))
(let ((.def_174 (and .def_171 .def_173)))
(let ((.def_186 (and .def_174 .def_185)))
(let ((.def_190 (and .def_186 .def_189)))
(let ((.def_191 (or .def_58 .def_190)))
(let ((.def_154 (* (- 1.0) b.time__AT1)))
(let ((.def_157 (+ b.delta__AT0 .def_154)))
(let ((.def_158 (+ b.time__AT0 .def_157)))
(let ((.def_159 (= .def_158 0.0 )))
(let ((.def_160 (or .def_146 .def_159)))
(let ((.def_161 (or b.EVENT.1__AT0 .def_160)))
(let ((.def_152 (or .def_144 .def_151)))
(let ((.def_153 (or b.EVENT.1__AT0 .def_152)))
(let ((.def_162 (and .def_153 .def_161)))
(let ((.def_192 (and .def_162 .def_191)))
(let ((.def_148 (= .def_146 b.event_is_timed__AT1)))
(let ((.def_145 (= b.event_is_timed__AT0 .def_144)))
(let ((.def_149 (and .def_145 .def_148)))
(let ((.def_193 (and .def_149 .def_192)))
(let ((.def_313 (and .def_193 .def_312)))
(let ((.def_317 (and .def_313 .def_316)))
(let ((.def_321 (and .def_317 .def_320)))
(let ((.def_322 (and .def_58 .def_321)))
(let ((.def_340 (and .def_322 .def_339)))
(let ((.def_347 (and .def_340 .def_346)))
(let ((.def_82 (* (- 1.0) b.speed_x__AT0)))
(let ((.def_83 (* b.speed_x__AT0 .def_82)))
(let ((.def_84 (* (- 1.0) .def_83)))
(let ((.def_118 (* 2.0 .def_84)))
(let ((.def_119 (* b.delta__AT0 .def_118)))
(let ((.def_121 (* 5.0 .def_119)))
(let ((.def_97 (* b.speed_x__AT0 .def_64)))
(let ((.def_125 (* (- 5.0) .def_97)))
(let ((.def_131 (+ .def_125 .def_121)))
(let ((.def_92 (* b.x__AT0 .def_82)))
(let ((.def_123 (* (- 5.0) .def_92)))
(let ((.def_132 (+ .def_123 .def_131)))
(let ((.def_133 (+ .def_127 .def_132)))
(let ((.def_134 (+ .def_129 .def_133)))
(let ((.def_138 (<= .def_134 0.0 )))
(let ((.def_98 (* (- 1.0) .def_97)))
(let ((.def_93 (* (- 1.0) .def_92)))
(let ((.def_115 (+ .def_93 .def_98)))
(let ((.def_116 (+ b.speed_y__AT0 .def_115)))
(let ((.def_137 (<= .def_116 0.0 )))
(let ((.def_139 (and .def_137 .def_138)))
(let ((.def_135 (<= 0.0 .def_134)))
(let ((.def_117 (<= 0.0 .def_116)))
(let ((.def_136 (and .def_117 .def_135)))
(let ((.def_140 (or .def_136 .def_139)))
(let ((.def_99 (* b.delta__AT0 .def_98)))
(let ((.def_100 (* 10.0 .def_99)))
(let ((.def_94 (* b.delta__AT0 .def_93)))
(let ((.def_95 (* 10.0 .def_94)))
(let ((.def_107 (+ .def_95 .def_100)))
(let ((.def_85 (* .def_81 .def_84)))
(let ((.def_86 (* 10.0 .def_85)))
(let ((.def_108 (+ .def_86 .def_107)))
(let ((.def_109 (+ .def_90 .def_108)))
(let ((.def_110 (+ .def_80 .def_109)))
(let ((.def_103 (* (- 10.0) .def_65)))
(let ((.def_111 (+ .def_103 .def_110)))
(let ((.def_112 (+ .def_105 .def_111)))
(let ((.def_113 (<= 0.0 .def_112)))
(let ((.def_66 (<= .def_65 b.y__AT0)))
(let ((.def_114 (and .def_66 .def_113)))
(let ((.def_141 (and .def_114 .def_140)))
(let ((.def_142 (and .def_73 .def_141)))
(let ((.def_74 (and .def_66 .def_73)))
(let ((.def_61 (or .def_58 .def_60)))
(let ((.def_51 (or .def_39 .def_41)))
(let ((.def_55 (or b.counter.3__AT0 .def_51)))
(let ((.def_52 (or b.counter.2__AT0 .def_51)))
(let ((.def_50 (or .def_41 .def_44)))
(let ((.def_53 (and .def_50 .def_52)))
(let ((.def_54 (or .def_47 .def_53)))
(let ((.def_56 (and .def_54 .def_55)))
(let ((.def_62 (and .def_56 .def_61)))
(let ((.def_75 (and .def_62 .def_74)))
(let ((.def_45 (and .def_42 .def_44)))
(let ((.def_48 (and .def_45 .def_47)))
(let ((.def_36 (= b.speed_y__AT0 1.0 )))
(let ((.def_33 (= b.speed_x__AT0 1.0 )))
(let ((.def_29 (= b.y__AT0 10.0 )))
(let ((.def_25 (= b.x__AT0 0.0 )))
(let ((.def_21 (= b.time__AT0 0.0 )))
(let ((.def_23 (and .def_21 b.event_is_timed__AT0)))
(let ((.def_26 (and .def_23 .def_25)))
(let ((.def_30 (and .def_26 .def_29)))
(let ((.def_34 (and .def_30 .def_33)))
(let ((.def_37 (and .def_34 .def_36)))
(let ((.def_49 (and .def_37 .def_48)))
(let ((.def_76 (and .def_49 .def_75)))
(let ((.def_10 (and .def_6 .def_9)))
(let ((.def_16 (or .def_10 b.counter.3__AT2)))
(let ((.def_11 (or b.counter.2__AT2 .def_10)))
(let ((.def_7 (or .def_4 .def_6)))
(let ((.def_12 (and .def_7 .def_11)))
(let ((.def_15 (or .def_12 .def_14)))
(let ((.def_17 (and .def_15 .def_16)))
(let ((.def_18 (not .def_17)))
(let ((.def_77 (and .def_18 .def_76)))
(let ((.def_143 (and .def_77 .def_142)))
(let ((.def_348 (and .def_143 .def_347)))
(let ((.def_409 (and .def_348 .def_408)))
(let ((.def_597 (and .def_409 .def_596)))
(let ((.def_658 (and .def_597 .def_657)))
.def_658)))))))))))))))))))))))))))))))))))))))))))))))))))))))))))))))))))))))))))))))))))))))))))))))))))))))))))))))))))))))))))))))))))))))))))))))))))))))))))))))))))))))))))))))))))))))))))))))))))))))))))))))))))))))))))))))))))))))))))))))))))))))))))))))))))))))))))))))))))))))))))))))))))))))))))))))))))))))))))))))))))))))))))))))))))))))))))))))))))))))))))))))))))))))))))))))))))))))))))))))))))))))))))))))))))))))))))))))))))))))))))))))))))))))))))))))))))))))))))))))))))))))))))))))))))))))))))))))))))))))))))))))))))))))))))))))
(check-sat)
(exit)
